WARNING: for repeatability, setting FPU to use double precision
============================[ Problem Statistics ]=============================
|                                                                             |
|  Number of variables:            50                                         |
|  Number of clauses:             218                                         |
|  Parse time:                   0.00 s                                       |
|                                                                             |
============================[ Search Statistics ]==============================
| Conflicts |          ORIGINAL         |          LEARNT          | Progress |
|           |    Vars  Clauses Literals |    Limit  Clauses Lit/Cl |          |
===============================================================================
===============================================================================
restarts              : 1
conflicts             : 11             (8035 /sec)
decisions             : 26             (0.00 % random) (18992 /sec)
propagations          : 226            (165084 /sec)
conflict literals     : 53             (3.64 % deleted)
Memory used           : 20.00 MB
CPU time              : 0.001369 s

SATISFIABLE
